robust/generate/spp_dkp_Lefebvre_et_al_2026/src/shortest_path_3_1.kp
43
73

[1.4 7.41 1.62 2.93 3.98 10.45]

[58 35 35 51 73 49]
